(set-logic QF_NRA)
; benchmark generated from python API
(set-info :status unknown)
(declare-fun v1y () Real)
(declare-fun oy () Real)
(declare-fun v1x () Real)
(declare-fun R2 () Real)
(declare-fun y1y () Real)
(declare-fun xy () Real)
(declare-fun y1x () Real)
(declare-fun xx () Real)
(declare-fun rho2 () Real)
(declare-fun y2y () Real)
(declare-fun y2x () Real)
(declare-fun y3y () Real)
(declare-fun y3x () Real)
(declare-fun y4y () Real)
(declare-fun y4x () Real)
(assert
 (let ((?x425 (* (- 1.0) v1x)))
 (let ((?x198 (* (- 1.0) R2)))
 (let ((?x25 (+ (+ (+ (+ (/ 1.0 4.0) (* oy oy)) (* v1x v1x)) (* v1y v1y)) ?x198)))
 (= (+ (+ ?x25 ?x425) (* (* (- 2.0) oy) v1y)) 0.0)))))
(assert
 (= (+ (+ (/ 1.0 4.0) (* oy oy)) (* (- 1.0) R2)) 0.0))
(assert
 (let ((?x464 (* (- 1.0) rho2)))
 (let ((?x461 (* y1y y1y)))
 (let ((?x327 (+ (+ (+ (+ (* xx xx) (* xy xy)) (* y1x y1x)) ?x461) ?x464)))
 (= (+ (+ ?x327 (* (* (- 2.0) xx) y1x)) (* (* (- 2.0) xy) y1y)) 0.0)))))
(assert
 (let ((?x464 (* (- 1.0) rho2)))
 (let ((?x471 (* y2y y2y)))
 (let ((?x172 (+ (+ (+ (+ (* xx xx) (* xy xy)) (* y2x y2x)) ?x471) ?x464)))
 (= (+ (+ ?x172 (* (* (- 2.0) xx) y2x)) (* (* (- 2.0) xy) y2y)) 0.0)))))
(assert
 (let ((?x464 (* (- 1.0) rho2)))
 (let ((?x101 (* y3y y3y)))
 (let ((?x265 (+ (+ (+ (+ (* xx xx) (* xy xy)) (* y3x y3x)) ?x101) ?x464)))
 (= (+ (+ ?x265 (* (* (- 2.0) xx) y3x)) (* (* (- 2.0) xy) y3y)) 0.0)))))
(assert
 (let ((?x464 (* (- 1.0) rho2)))
 (let ((?x486 (* y4y y4y)))
 (let ((?x43 (+ (+ (+ (+ (* xx xx) (* xy xy)) (* y4x y4x)) ?x486) ?x464)))
 (= (+ (+ ?x43 (* (* (- 2.0) xx) y4x)) (* (* (- 2.0) xy) y4y)) 0.0)))))
(assert
 (let ((?x318 (+ (+ (+ (+ (- (/ 1.0 4.0)) R2) xx) (* (- 1.0) (* oy oy))) (* (- 1.0) (* xx xx)))))
 (>= (+ (+ ?x318 (* (- 1.0) (* xy xy))) (* (* 2.0 oy) xy)) 0.0)))
(assert
 (let ((?x110 (+ (+ (+ (+ (- (/ 1.0 4.0)) R2) y1x) (* (- 1.0) (* oy oy))) (* (- 1.0) (* y1x y1x)))))
 (>= (+ (+ ?x110 (* (- 1.0) (* y1y y1y))) (* (* 2.0 oy) y1y)) 0.0)))
(assert
 (let ((?x84 (+ (+ (+ (+ (- (/ 1.0 4.0)) R2) y2x) (* (- 1.0) (* oy oy))) (* (- 1.0) (* y2x y2x)))))
 (>= (+ (+ ?x84 (* (- 1.0) (* y2y y2y))) (* (* 2.0 oy) y2y)) 0.0)))
(assert
 (let ((?x459 (+ (+ (+ (+ (- (/ 1.0 4.0)) R2) y3x) (* (- 1.0) (* oy oy))) (* (- 1.0) (* y3x y3x)))))
 (>= (+ (+ ?x459 (* (- 1.0) (* y3y y3y))) (* (* 2.0 oy) y3y)) 0.0)))
(assert
 (let ((?x117 (+ (+ (+ (+ (- (/ 1.0 4.0)) R2) y4x) (* (- 1.0) (* oy oy))) (* (- 1.0) (* y4x y4x)))))
 (>= (+ (+ ?x117 (* (- 1.0) (* y4y y4y))) (* (* 2.0 oy) y4y)) 0.0)))
(assert
 (>= (+ (+ (* v1x v1x) (* v1y v1y)) (* (- 1.0) v1x)) 0.0))
(assert
 (>= v1x 0.0))
(assert
 (>= (+ 1.0 (* (- 1.0) v1x)) 0.0))
(assert
 (> R2 0.0))
(assert
 (> rho2 0.0))
(assert
 (let ((?x370 (* (- 1.0) v1y)))
 (let ((?x470 (* ?x370 xy)))
 (> ?x470 0.0))))
(assert
 (let ((?x273 (+ (+ (* v1y v1y) (* (* (- 1.0) v1y) xy)) (* (* (- 1.0) xx) (* v1y v1y)))))
 (> (+ ?x273 (* (* v1x v1y) xy)) 0.0)))
(assert
 (> (+ (* xx (* v1y v1y)) (* (* (* (- 1.0) v1x) v1y) xy)) 0.0))
(assert
 (let ((?x370 (* (- 1.0) v1y)))
 (let ((?x202 (* ?x370 y1y)))
 (> ?x202 0.0))))
(assert
 (let ((?x109 (+ (+ (* v1y v1y) (* (* (- 1.0) v1y) y1y)) (* (* (- 1.0) y1x) (* v1y v1y)))))
 (> (+ ?x109 (* (* v1x v1y) y1y)) 0.0)))
(assert
 (> (+ (* y1x (* v1y v1y)) (* (* (* (- 1.0) v1x) v1y) y1y)) 0.0))
(assert
 (let ((?x370 (* (- 1.0) v1y)))
 (let ((?x266 (* ?x370 y2y)))
 (> ?x266 0.0))))
(assert
 (let ((?x449 (+ (+ (* v1y v1y) (* (* (- 1.0) v1y) y2y)) (* (* (- 1.0) y2x) (* v1y v1y)))))
 (> (+ ?x449 (* (* v1x v1y) y2y)) 0.0)))
(assert
 (> (+ (* y2x (* v1y v1y)) (* (* (* (- 1.0) v1x) v1y) y2y)) 0.0))
(assert
 (let ((?x370 (* (- 1.0) v1y)))
 (let ((?x134 (* ?x370 y3y)))
 (> ?x134 0.0))))
(assert
 (let ((?x475 (+ (+ (* v1y v1y) (* (* (- 1.0) v1y) y3y)) (* (* (- 1.0) y3x) (* v1y v1y)))))
 (> (+ ?x475 (* (* v1x v1y) y3y)) 0.0)))
(assert
 (> (+ (* y3x (* v1y v1y)) (* (* (* (- 1.0) v1x) v1y) y3y)) 0.0))
(assert
 (let ((?x370 (* (- 1.0) v1y)))
 (let ((?x299 (* ?x370 y4y)))
 (> ?x299 0.0))))
(assert
 (let ((?x340 (+ (+ (* v1y v1y) (* (* (- 1.0) v1y) y4y)) (* (* (- 1.0) y4x) (* v1y v1y)))))
 (> (+ ?x340 (* (* v1x v1y) y4y)) 0.0)))
(assert
 (> (+ (* y4x (* v1y v1y)) (* (* (* (- 1.0) v1x) v1y) y4y)) 0.0))
(assert
 (> (+ (* y1x y2y) (* (* (- 1.0) y1y) y2x)) 0.0))
(assert
 (> (+ (* y1x y3y) (* (* (- 1.0) y1y) y3x)) 0.0))
(assert
 (> (+ (* xy y1x) (* (* (- 1.0) xx) y1y)) 0.0))
(assert
 (> (+ (* y1x y4y) (* (* (- 1.0) y1y) y4x)) 0.0))
(assert
 (let ((?x115 (* (- 1.0) y1y)))
 (> ?x115 0.0)))
(assert
 (> (+ (* v1y y1x) (* (* (- 1.0) v1x) y1y)) 0.0))
(assert
 (> (+ (* y2x y3y) (* (* (- 1.0) y2y) y3x)) 0.0))
(assert
 (> (+ (* xy y2x) (* (* (- 1.0) xx) y2y)) 0.0))
(assert
 (> (+ (* y2x y4y) (* (* (- 1.0) y2y) y4x)) 0.0))
(assert
 (let ((?x317 (* (- 1.0) y2y)))
 (> ?x317 0.0)))
(assert
 (> (+ (* v1y y2x) (* (* (- 1.0) v1x) y2y)) 0.0))
(assert
 (> (+ (* xy y3x) (* (* (- 1.0) xx) y3y)) 0.0))
(assert
 (> (+ (* y3x y4y) (* (* (- 1.0) y3y) y4x)) 0.0))
(assert
 (let ((?x429 (* (- 1.0) y3y)))
 (> ?x429 0.0)))
(assert
 (> (+ (* v1y y3x) (* (* (- 1.0) v1x) y3y)) 0.0))
(assert
 (> (+ (* xx y4y) (* (* (- 1.0) xy) y4x)) 0.0))
(assert
 (let ((?x107 (* (- 1.0) xy)))
 (> ?x107 0.0)))
(assert
 (> (+ (* v1y xx) (* (* (- 1.0) v1x) xy)) 0.0))
(assert
 (let ((?x428 (* (- 1.0) y4y)))
 (> ?x428 0.0)))
(assert
 (> (+ (* v1y y4x) (* (* (- 1.0) v1x) y4y)) 0.0))
(assert
 (> v1y 0.0))
(assert
 (let ((?x317 (* (- 1.0) y2y)))
 (let ((?x367 (* ?x317 y3x)))
 (let ((?x115 (* (- 1.0) y1y)))
 (let ((?x193 (* ?x115 y2x)))
 (let ((?x377 (+ (+ (+ (* y1x y2y) (* y1y y3x)) (* y2x y3y)) (* (* (- 1.0) y1x) y3y))))
 (> (+ (+ ?x377 ?x193) ?x367) 0.0)))))))
(assert
 (let ((?x115 (* (- 1.0) y1y)))
 (let ((?x193 (* ?x115 y2x)))
 (let ((?x107 (* (- 1.0) xy)))
 (let ((?x440 (* ?x107 y1x)))
 (let ((?x233 (* (- 1.0) xx)))
 (let ((?x58 (* ?x233 y2y)))
 (let ((?x269 (+ (+ (+ (+ (* xx y1y) (* xy y2x)) (* y1x y2y)) ?x58) ?x440)))
 (> (+ ?x269 ?x193) 0.0)))))))))
(assert
 (let ((?x317 (* (- 1.0) y2y)))
 (let ((?x397 (* ?x317 y4x)))
 (let ((?x115 (* (- 1.0) y1y)))
 (let ((?x193 (* ?x115 y2x)))
 (let ((?x375 (* (- 1.0) y1x)))
 (let ((?x65 (* ?x375 y4y)))
 (let ((?x60 (+ (+ (+ (+ (* y1x y2y) (* y1y y4x)) (* y2x y4y)) ?x65) ?x193)))
 (> (+ ?x60 ?x397) 0.0)))))))))
(assert
 (let ((?x115 (* (- 1.0) y1y)))
 (let ((?x193 (* ?x115 y2x)))
 (> (+ (+ (+ y1y (* (- 1.0) y2y)) (* y1x y2y)) ?x193) 0.0))))
(assert
 (let ((?x115 (* (- 1.0) y1y)))
 (let ((?x193 (* ?x115 y2x)))
 (let ((?x370 (* (- 1.0) v1y)))
 (let ((?x93 (* ?x370 y1x)))
 (let ((?x425 (* (- 1.0) v1x)))
 (let ((?x339 (* ?x425 y2y)))
 (let ((?x814 (+ (+ (+ (+ (* v1x y1y) (* v1y y2x)) (* y1x y2y)) ?x339) ?x93)))
 (> (+ ?x814 ?x193) 0.0)))))))))
(assert
 (let ((?x115 (* (- 1.0) y1y)))
 (let ((?x232 (* ?x115 y3x)))
 (let ((?x107 (* (- 1.0) xy)))
 (let ((?x440 (* ?x107 y1x)))
 (let ((?x233 (* (- 1.0) xx)))
 (let ((?x455 (* ?x233 y3y)))
 (let ((?x74 (+ (+ (+ (+ (* xx y1y) (* xy y3x)) (* y1x y3y)) ?x455) ?x440)))
 (> (+ ?x74 ?x232) 0.0)))))))))
(assert
 (let ((?x429 (* (- 1.0) y3y)))
 (let ((?x123 (* ?x429 y4x)))
 (let ((?x115 (* (- 1.0) y1y)))
 (let ((?x232 (* ?x115 y3x)))
 (let ((?x375 (* (- 1.0) y1x)))
 (let ((?x65 (* ?x375 y4y)))
 (let ((?x86 (+ (+ (+ (+ (* y1x y3y) (* y1y y4x)) (* y3x y4y)) ?x65) ?x232)))
 (> (+ ?x86 ?x123) 0.0)))))))))
(assert
 (let ((?x115 (* (- 1.0) y1y)))
 (let ((?x232 (* ?x115 y3x)))
 (> (+ (+ (+ y1y (* (- 1.0) y3y)) (* y1x y3y)) ?x232) 0.0))))
(assert
 (let ((?x115 (* (- 1.0) y1y)))
 (let ((?x232 (* ?x115 y3x)))
 (let ((?x370 (* (- 1.0) v1y)))
 (let ((?x93 (* ?x370 y1x)))
 (let ((?x425 (* (- 1.0) v1x)))
 (let ((?x73 (* ?x425 y3y)))
 (let ((?x389 (+ (+ (+ (+ (* v1x y1y) (* v1y y3x)) (* y1x y3y)) ?x73) ?x93)))
 (> (+ ?x389 ?x232) 0.0)))))))))
(assert
 (let ((?x375 (* (- 1.0) y1x)))
 (let ((?x65 (* ?x375 y4y)))
 (let ((?x107 (* (- 1.0) xy)))
 (let ((?x141 (* ?x107 y4x)))
 (let ((?x233 (* (- 1.0) xx)))
 (let ((?x59 (* ?x233 y1y)))
 (let ((?x105 (+ (+ (+ (+ (* xx y4y) (* xy y1x)) (* y1y y4x)) ?x59) ?x141)))
 (> (+ ?x105 ?x65) 0.0)))))))))
(assert
 (let ((?x233 (* (- 1.0) xx)))
 (let ((?x59 (* ?x233 y1y)))
 (> (+ (+ (+ y1y (* (- 1.0) xy)) (* xy y1x)) ?x59) 0.0))))
(assert
 (let ((?x233 (* (- 1.0) xx)))
 (let ((?x59 (* ?x233 y1y)))
 (let ((?x370 (* (- 1.0) v1y)))
 (let ((?x93 (* ?x370 y1x)))
 (let ((?x425 (* (- 1.0) v1x)))
 (let ((?x239 (* ?x425 xy)))
 (let ((?x243 (+ (+ (+ (+ (* v1x y1y) (* v1y xx)) (* xy y1x)) ?x239) ?x93)))
 (> (+ ?x243 ?x59) 0.0)))))))))
(assert
 (let ((?x115 (* (- 1.0) y1y)))
 (let ((?x57 (* ?x115 y4x)))
 (> (+ (+ (+ y1y (* (- 1.0) y4y)) (* y1x y4y)) ?x57) 0.0))))
(assert
 (let ((?x115 (* (- 1.0) y1y)))
 (let ((?x57 (* ?x115 y4x)))
 (let ((?x370 (* (- 1.0) v1y)))
 (let ((?x93 (* ?x370 y1x)))
 (let ((?x425 (* (- 1.0) v1x)))
 (let ((?x231 (* ?x425 y4y)))
 (let ((?x368 (+ (+ (+ (+ (* v1x y1y) (* v1y y4x)) (* y1x y4y)) ?x231) ?x93)))
 (> (+ ?x368 ?x57) 0.0)))))))))
(assert
 (let ((?x370 (* (- 1.0) v1y)))
 (let ((?x93 (* ?x370 y1x)))
 (> (+ (+ (+ v1y (* (- 1.0) y1y)) (* v1x y1y)) ?x93) 0.0))))
(assert
 (let ((?x317 (* (- 1.0) y2y)))
 (let ((?x367 (* ?x317 y3x)))
 (let ((?x233 (* (- 1.0) xx)))
 (let ((?x455 (* ?x233 y3y)))
 (let ((?x66 (+ (+ (+ (+ (* xx y2y) (* xy y3x)) (* y2x y3y)) ?x455) (* (* (- 1.0) xy) y2x))))
 (> (+ ?x66 ?x367) 0.0)))))))
(assert
 (let ((?x429 (* (- 1.0) y3y)))
 (let ((?x123 (* ?x429 y4x)))
 (let ((?x317 (* (- 1.0) y2y)))
 (let ((?x367 (* ?x317 y3x)))
 (let ((?x167 (* (- 1.0) y2x)))
 (let ((?x249 (* ?x167 y4y)))
 (let ((?x143 (+ (+ (+ (+ (* y2x y3y) (* y2y y4x)) (* y3x y4y)) ?x249) ?x367)))
 (> (+ ?x143 ?x123) 0.0)))))))))
(assert
 (let ((?x317 (* (- 1.0) y2y)))
 (let ((?x367 (* ?x317 y3x)))
 (> (+ (+ (+ y2y (* (- 1.0) y3y)) (* y2x y3y)) ?x367) 0.0))))
(assert
 (let ((?x317 (* (- 1.0) y2y)))
 (let ((?x367 (* ?x317 y3x)))
 (let ((?x370 (* (- 1.0) v1y)))
 (let ((?x22 (* ?x370 y2x)))
 (let ((?x425 (* (- 1.0) v1x)))
 (let ((?x73 (* ?x425 y3y)))
 (let ((?x384 (+ (+ (+ (+ (* v1x y2y) (* v1y y3x)) (* y2x y3y)) ?x73) ?x22)))
 (> (+ ?x384 ?x367) 0.0)))))))))
(assert
 (let ((?x167 (* (- 1.0) y2x)))
 (let ((?x249 (* ?x167 y4y)))
 (let ((?x107 (* (- 1.0) xy)))
 (let ((?x141 (* ?x107 y4x)))
 (let ((?x233 (* (- 1.0) xx)))
 (let ((?x58 (* ?x233 y2y)))
 (let ((?x409 (+ (+ (+ (+ (* xx y4y) (* xy y2x)) (* y2y y4x)) ?x58) ?x141)))
 (> (+ ?x409 ?x249) 0.0)))))))))
(assert
 (let ((?x233 (* (- 1.0) xx)))
 (let ((?x58 (* ?x233 y2y)))
 (> (+ (+ (+ y2y (* (- 1.0) xy)) (* xy y2x)) ?x58) 0.0))))
(assert
 (let ((?x233 (* (- 1.0) xx)))
 (let ((?x58 (* ?x233 y2y)))
 (let ((?x370 (* (- 1.0) v1y)))
 (let ((?x22 (* ?x370 y2x)))
 (let ((?x425 (* (- 1.0) v1x)))
 (let ((?x239 (* ?x425 xy)))
 (let ((?x72 (+ (+ (+ (+ (* v1x y2y) (* v1y xx)) (* xy y2x)) ?x239) ?x22)))
 (> (+ ?x72 ?x58) 0.0)))))))))
(assert
 (let ((?x317 (* (- 1.0) y2y)))
 (let ((?x397 (* ?x317 y4x)))
 (> (+ (+ (+ y2y (* (- 1.0) y4y)) (* y2x y4y)) ?x397) 0.0))))
(assert
 (let ((?x317 (* (- 1.0) y2y)))
 (let ((?x397 (* ?x317 y4x)))
 (let ((?x370 (* (- 1.0) v1y)))
 (let ((?x22 (* ?x370 y2x)))
 (let ((?x425 (* (- 1.0) v1x)))
 (let ((?x231 (* ?x425 y4y)))
 (let ((?x33 (+ (+ (+ (+ (* v1x y2y) (* v1y y4x)) (* y2x y4y)) ?x231) ?x22)))
 (> (+ ?x33 ?x397) 0.0)))))))))
(assert
 (let ((?x370 (* (- 1.0) v1y)))
 (let ((?x22 (* ?x370 y2x)))
 (> (+ (+ (+ v1y (* (- 1.0) y2y)) (* v1x y2y)) ?x22) 0.0))))
(assert
 (let ((?x107 (* (- 1.0) xy)))
 (let ((?x141 (* ?x107 y4x)))
 (let ((?x233 (* (- 1.0) xx)))
 (let ((?x455 (* ?x233 y3y)))
 (let ((?x225 (+ (+ (+ (+ (* xx y4y) (* xy y3x)) (* y3y y4x)) ?x455) ?x141)))
 (> (+ ?x225 (* (* (- 1.0) y3x) y4y)) 0.0)))))))
(assert
 (let ((?x233 (* (- 1.0) xx)))
 (let ((?x455 (* ?x233 y3y)))
 (> (+ (+ (+ y3y (* (- 1.0) xy)) (* xy y3x)) ?x455) 0.0))))
(assert
 (let ((?x233 (* (- 1.0) xx)))
 (let ((?x455 (* ?x233 y3y)))
 (let ((?x370 (* (- 1.0) v1y)))
 (let ((?x435 (* ?x370 y3x)))
 (let ((?x425 (* (- 1.0) v1x)))
 (let ((?x239 (* ?x425 xy)))
 (let ((?x371 (+ (+ (+ (+ (* v1x y3y) (* v1y xx)) (* xy y3x)) ?x239) ?x435)))
 (> (+ ?x371 ?x455) 0.0)))))))))
(assert
 (let ((?x429 (* (- 1.0) y3y)))
 (let ((?x123 (* ?x429 y4x)))
 (> (+ (+ (+ y3y (* (- 1.0) y4y)) (* y3x y4y)) ?x123) 0.0))))
(assert
 (let ((?x429 (* (- 1.0) y3y)))
 (let ((?x123 (* ?x429 y4x)))
 (let ((?x370 (* (- 1.0) v1y)))
 (let ((?x435 (* ?x370 y3x)))
 (let ((?x425 (* (- 1.0) v1x)))
 (let ((?x231 (* ?x425 y4y)))
 (let ((?x222 (+ (+ (+ (+ (* v1x y3y) (* v1y y4x)) (* y3x y4y)) ?x231) ?x435)))
 (> (+ ?x222 ?x123) 0.0)))))))))
(assert
 (let ((?x370 (* (- 1.0) v1y)))
 (let ((?x435 (* ?x370 y3x)))
 (> (+ (+ (+ v1y (* (- 1.0) y3y)) (* v1x y3y)) ?x435) 0.0))))
(assert
 (let ((?x107 (* (- 1.0) xy)))
 (let ((?x141 (* ?x107 y4x)))
 (> (+ (+ (+ xy (* (- 1.0) y4y)) (* xx y4y)) ?x141) 0.0))))
(assert
 (let ((?x107 (* (- 1.0) xy)))
 (let ((?x141 (* ?x107 y4x)))
 (let ((?x370 (* (- 1.0) v1y)))
 (let ((?x258 (* ?x370 xx)))
 (let ((?x425 (* (- 1.0) v1x)))
 (let ((?x231 (* ?x425 y4y)))
 (let ((?x392 (+ (+ (+ (+ (* v1x xy) (* v1y y4x)) (* xx y4y)) ?x231) ?x258)))
 (> (+ ?x392 ?x141) 0.0)))))))))
(assert
 (let ((?x370 (* (- 1.0) v1y)))
 (let ((?x258 (* ?x370 xx)))
 (> (+ (+ (+ v1y (* (- 1.0) xy)) (* v1x xy)) ?x258) 0.0))))
(assert
 (let ((?x71 (+ (+ (+ v1y (* (- 1.0) y4y)) (* v1x y4y)) (* (* (- 1.0) v1y) y4x))))
(> ?x71 0.0)))
(check-sat)
